
Gurobi 7.5.1 (linux64, Java) logging started Dom 22 Out 2017 12:33:47 BRT

Academic license - for non-commercial use only

Gurobi 7.5.1 (linux64, Java) logging started Ter 24 Out 2017 13:36:26 BRT

Academic license - for non-commercial use only

Gurobi 7.5.1 (linux64, Java) logging started Ter 24 Out 2017 13:37:37 BRT

Academic license - for non-commercial use only

Gurobi 7.5.1 (linux64, Java) logging started Ter 24 Out 2017 13:49:27 BRT

Academic license - for non-commercial use only

Gurobi 7.5.1 (linux64, Java) logging started Ter 24 Out 2017 13:50:11 BRT

Academic license - for non-commercial use only

Gurobi 7.5.1 (linux64, Java) logging started Ter 24 Out 2017 13:50:56 BRT

Academic license - for non-commercial use only

Gurobi 7.5.1 (linux64, Java) logging started Ter 24 Out 2017 13:52:02 BRT

Academic license - for non-commercial use only

Gurobi 7.5.1 (linux64, Java) logging started Ter 24 Out 2017 13:52:41 BRT

Academic license - for non-commercial use only

Gurobi 7.5.1 (linux64, Java) logging started Ter 24 Out 2017 13:56:58 BRT

Academic license - for non-commercial use only

Gurobi 7.5.1 (linux64, Java) logging started Qui 26 Out 2017 12:03:38 BRT

Academic license - for non-commercial use only

Gurobi 7.5.1 (linux64, Java) logging started Qui 26 Out 2017 12:05:08 BRT

Academic license - for non-commercial use only

Gurobi 7.5.1 (linux64, Java) logging started Qui 09 Nov 2017 16:21:21 BRT

Academic license - for non-commercial use only

Gurobi 7.5.1 (linux64, Java) logging started Qui 09 Nov 2017 16:22:01 BRT

Academic license - for non-commercial use only

Gurobi 7.5.1 (linux64, Java) logging started Qui 09 Nov 2017 16:25:43 BRT

Academic license - for non-commercial use only

Gurobi 7.5.1 (linux64, Java) logging started Qui 09 Nov 2017 16:25:58 BRT

Academic license - for non-commercial use only

Gurobi 7.5.1 (linux64, Java) logging started Qui 09 Nov 2017 16:26:36 BRT

Academic license - for non-commercial use only

Gurobi 7.5.1 (linux64, Java) logging started Qui 09 Nov 2017 16:27:43 BRT

Academic license - for non-commercial use only

Gurobi 7.5.1 (linux64, Java) logging started Qui 09 Nov 2017 16:30:40 BRT

Academic license - for non-commercial use only

Gurobi 7.5.1 (linux64, Java) logging started Qui 09 Nov 2017 16:38:17 BRT

Academic license - for non-commercial use only

Gurobi 7.5.1 (linux64, Java) logging started Qui 09 Nov 2017 16:42:58 BRT

Academic license - for non-commercial use only

Gurobi 7.5.1 (linux64, Java) logging started Qui 09 Nov 2017 16:43:56 BRT

Academic license - for non-commercial use only

Gurobi 7.5.1 (linux64, Java) logging started Qui 09 Nov 2017 16:46:24 BRT

Academic license - for non-commercial use only

Gurobi 7.5.1 (linux64, Java) logging started Qui 09 Nov 2017 16:50:00 BRT

Academic license - for non-commercial use only

Gurobi 7.5.1 (linux64, Java) logging started Qui 09 Nov 2017 16:50:20 BRT

Academic license - for non-commercial use only

Gurobi 7.5.1 (linux64, Java) logging started Qui 09 Nov 2017 16:51:53 BRT

Academic license - for non-commercial use only

Gurobi 7.5.1 (linux64, Java) logging started Qui 09 Nov 2017 16:53:27 BRT

Academic license - for non-commercial use only

Gurobi 7.5.1 (linux64, Java) logging started Qui 09 Nov 2017 16:56:35 BRT

Academic license - for non-commercial use only

Gurobi 7.5.1 (linux64, Java) logging started Qui 09 Nov 2017 16:57:24 BRT

Academic license - for non-commercial use only

Gurobi 7.5.1 (linux64, Java) logging started Qui 09 Nov 2017 16:58:59 BRT

Academic license - for non-commercial use only

Gurobi 7.5.1 (linux64, Java) logging started Qui 09 Nov 2017 17:20:04 BRT

Academic license - for non-commercial use only

Gurobi 7.5.1 (linux64, Java) logging started Qui 09 Nov 2017 17:20:29 BRT

Academic license - for non-commercial use only

Gurobi 7.5.1 (linux64, Java) logging started Qui 09 Nov 2017 17:21:13 BRT

Academic license - for non-commercial use only

Gurobi 7.5.1 (linux64, Java) logging started Qui 09 Nov 2017 17:21:53 BRT

Academic license - for non-commercial use only

Gurobi 7.5.1 (linux64, Java) logging started Qui 09 Nov 2017 17:29:13 BRT

Academic license - for non-commercial use only

Gurobi 7.5.1 (linux64, Java) logging started Qui 09 Nov 2017 17:35:47 BRT

Academic license - for non-commercial use only

Gurobi 7.5.1 (linux64, Java) logging started Qui 09 Nov 2017 17:44:31 BRT

Academic license - for non-commercial use only

Gurobi 7.5.1 (linux64, Java) logging started Qui 09 Nov 2017 17:44:55 BRT

Academic license - for non-commercial use only

Gurobi 7.5.1 (linux64, Java) logging started Qui 09 Nov 2017 17:49:13 BRT

Academic license - for non-commercial use only

Gurobi 7.5.1 (linux64, Java) logging started Qui 09 Nov 2017 17:50:07 BRT

Academic license - for non-commercial use only

Gurobi 7.5.1 (linux64, Java) logging started Qui 09 Nov 2017 21:09:46 BRT

Academic license - for non-commercial use only

Gurobi 7.5.1 (linux64, Java) logging started Qui 09 Nov 2017 21:10:30 BRT

Academic license - for non-commercial use only

Gurobi 7.5.1 (linux64, Java) logging started Qui 09 Nov 2017 21:12:32 BRT

Academic license - for non-commercial use only

Gurobi 7.5.1 (linux64, Java) logging started Qui 09 Nov 2017 21:13:02 BRT

Academic license - for non-commercial use only

Gurobi 7.5.1 (linux64, Java) logging started Qui 09 Nov 2017 21:14:01 BRT

Academic license - for non-commercial use only

Gurobi 7.5.1 (linux64, Java) logging started Qui 09 Nov 2017 21:14:06 BRT

Academic license - for non-commercial use only

Gurobi 7.5.1 (linux64, Java) logging started Qui 09 Nov 2017 21:14:55 BRT

Academic license - for non-commercial use only

Gurobi 7.5.1 (linux64, Java) logging started Qui 09 Nov 2017 21:27:57 BRT

Academic license - for non-commercial use only

Gurobi 7.5.1 (linux64, Java) logging started Qui 09 Nov 2017 21:31:27 BRT

Academic license - for non-commercial use only

Gurobi 7.5.1 (linux64, Java) logging started Qui 09 Nov 2017 21:33:43 BRT

Academic license - for non-commercial use only

Gurobi 7.5.1 (linux64, Java) logging started Qui 09 Nov 2017 21:33:56 BRT

Academic license - for non-commercial use only

Gurobi 7.5.1 (linux64, Java) logging started Qui 09 Nov 2017 21:34:39 BRT

Academic license - for non-commercial use only

Gurobi 7.5.1 (linux64, Java) logging started Qui 09 Nov 2017 21:35:31 BRT

Academic license - for non-commercial use only

Gurobi 7.5.1 (linux64, Java) logging started Qui 09 Nov 2017 21:47:22 BRT

Academic license - for non-commercial use only

Gurobi 7.5.1 (linux64, Java) logging started Qui 09 Nov 2017 21:47:28 BRT

Academic license - for non-commercial use only

Gurobi 7.5.1 (linux64, Java) logging started Qui 09 Nov 2017 21:47:56 BRT

Academic license - for non-commercial use only

Gurobi 7.5.1 (linux64, Java) logging started Qui 09 Nov 2017 21:49:11 BRT

Academic license - for non-commercial use only

Gurobi 7.5.1 (linux64, Java) logging started Qui 09 Nov 2017 21:49:31 BRT

Academic license - for non-commercial use only

Gurobi 7.5.1 (linux64, Java) logging started Sex 10 Nov 2017 22:31:07 BRT

Academic license - for non-commercial use only

Gurobi 7.5.1 (linux64, Java) logging started Sex 10 Nov 2017 22:31:33 BRT

Academic license - for non-commercial use only

Gurobi 7.5.1 (linux64, Java) logging started Sex 10 Nov 2017 22:51:06 BRT

Academic license - for non-commercial use only

Gurobi 7.5.1 (linux64, Java) logging started Sex 10 Nov 2017 22:51:18 BRT

Academic license - for non-commercial use only

Gurobi 7.5.1 (linux64, Java) logging started Sex 10 Nov 2017 22:51:36 BRT

Academic license - for non-commercial use only

Gurobi 7.5.1 (linux64, Java) logging started Sáb 11 Nov 2017 16:41:29 BRT

Academic license - for non-commercial use only

Gurobi 7.5.1 (linux64, Java) logging started Sáb 11 Nov 2017 16:42:19 BRT

Academic license - for non-commercial use only

Gurobi 7.5.1 (linux64, Java) logging started Sáb 11 Nov 2017 17:12:20 BRT

Academic license - for non-commercial use only
